Version identifier: 22.1.0.0 | 2022-03-09 | 1a383f8ce
CPXPARAM_Read_DataCheck                          1
1 of 1 MIP starts provided solutions.
MIP start 'm1' defined initial solution with objective 67.0000.
Tried aggregator 3 times.
MIP Presolve eliminated 126956 rows and 9966 columns.
MIP Presolve modified 1345 coefficients.
Aggregator did 118801 substitutions.
Reduced MIP has 11346 rows, 121679 columns, and 254940 nonzeros.
Reduced MIP has 121637 binaries, 42 generals, 0 SOSs, and 0 indicators.
Presolve time = 1.63 sec. (1614.08 ticks)
Tried aggregator 1 time.
Detecting symmetries...
Reduced MIP has 11346 rows, 121679 columns, and 254940 nonzeros.
Reduced MIP has 121637 binaries, 42 generals, 0 SOSs, and 0 indicators.
Presolve time = 0.36 sec. (210.29 ticks)
Probing fixed 63 vars, tightened 0 bounds.
Probing changed sense of 14 constraints.
Probing time = 0.23 sec. (29.89 ticks)
Clique table members: 246221.
MIP emphasis: balance optimality and feasibility.
MIP search method: dynamic search.
Parallel mode: deterministic, using up to 8 threads.
Root relaxation solution time = 1.04 sec. (738.71 ticks)

        Nodes                                         Cuts/
   Node  Left     Objective  IInf  Best Integer    Best Bound    ItCnt     Gap

*     0+    0                           67.0000        0.0000           100.00%
      0     0       42.3726  8323       67.0000       42.3726       26   36.76%
      0     0       66.0000  1205       67.0000      Cuts: 34    20621    1.49%
      0     0       66.0000  1119       67.0000     Cuts: 189    40341    1.49%

Repeating presolve.
Tried aggregator 3 times.
MIP Presolve eliminated 2527 rows and 76876 columns.
MIP Presolve modified 4 coefficients.
Aggregator did 1822 substitutions.
Reduced MIP has 6997 rows, 42981 columns, and 92677 nonzeros.
Reduced MIP has 42981 binaries, 0 generals, 0 SOSs, and 0 indicators.
Presolve time = 0.23 sec. (216.05 ticks)
Tried aggregator 2 times.
Detecting symmetries...
Aggregator did 3 substitutions.
Reduced MIP has 6994 rows, 42978 columns, and 92674 nonzeros.
Reduced MIP has 42978 binaries, 0 generals, 0 SOSs, and 0 indicators.
Presolve time = 0.08 sec. (72.09 ticks)
Represolve time = 0.44 sec. (412.44 ticks)

        Nodes                                         Cuts/
   Node  Left     Objective  IInf  Best Integer    Best Bound    ItCnt     Gap

      0     1  -1.00000e+37     0       67.0000       66.0000    40341    1.49%

Root node processing (before b&c):
  Real time             =   88.02 sec. (53543.62 ticks)
Parallel b&c, 8 threads:
  Real time             =    0.00 sec. (0.00 ticks)
  Sync time (average)   =    0.00 sec.
  Wait time (average)   =    0.00 sec.
                          ------------
Total (root+branch&cut) =   88.02 sec. (53543.62 ticks)
